c Graph coloring problem - 3-coloring of a graph with 7 vertices
c Encoded in CNF format
c Variables 1-7 represent color 1, 8-14 represent color 2, 15-21 represent color 3
c Each vertex must have exactly one color
c Adjacent vertices must have different colors
p cnf 21 145
c Each vertex must have at least one color
1 8 15 0
2 9 16 0
3 10 17 0
4 11 18 0
5 12 19 0
6 13 20 0
7 14 21 0
c Each vertex has at most one color (at-most-one constraints)
-1 -8 0
-1 -15 0
-8 -15 0
-2 -9 0
-2 -16 0
-9 -16 0
-3 -10 0
-3 -17 0
-10 -17 0
-4 -11 0
-4 -18 0
-11 -18 0
-5 -12 0
-5 -19 0
-12 -19 0
-6 -13 0
-6 -20 0
-13 -20 0
-7 -14 0
-7 -21 0
-14 -21 0
c Edge constraints: adjacent vertices have different colors
c Edge (1,2)
-1 -2 0
-8 -9 0
-15 -16 0
c Edge (1,3)
-1 -3 0
-8 -10 0
-15 -17 0
c Edge (1,4)
-1 -4 0
-8 -11 0
-15 -18 0
c Edge (2,3)
-2 -3 0
-9 -10 0
-16 -17 0
c Edge (2,5)
-2 -5 0
-9 -12 0
-16 -19 0
c Edge (3,4)
-3 -4 0
-10 -11 0
-17 -18 0
c Edge (3,6)
-3 -6 0
-10 -13 0
-17 -20 0
c Edge (4,5)
-4 -5 0
-11 -12 0
-18 -19 0
c Edge (4,7)
-4 -7 0
-11 -14 0
-18 -21 0
c Edge (5,6)
-5 -6 0
-12 -13 0
-19 -20 0
c Edge (6,7)
-6 -7 0
-13 -14 0
-20 -21 0
c REDUNDANT CLAUSES BELOW - These are subsumed or tautologies
c Tautology clauses
1 -1 0
2 -2 0
8 -8 0
c Duplicate clauses
-1 -2 0
-8 -9 0
-3 -4 0
c Subsumed clauses (longer versions of existing clauses)
1 8 15 16 0
2 9 16 17 0
-1 -8 5 0
-1 -15 6 0
-2 -9 7 0
-2 -16 8 0
-3 -10 9 0
-4 -11 10 0
-5 -12 11 0
-6 -13 12 0
-1 -2 3 0
-1 -2 4 0
-8 -9 10 0
-8 -9 11 0
-15 -16 17 0
-1 -3 2 0
-8 -10 9 0
-15 -17 16 0
-2 -3 1 0
-9 -10 8 0
-16 -17 15 0
c More tautologies
3 -3 0
4 -4 0
5 -5 0
c More duplicates
-1 -8 0
-2 -9 0
-3 -10 0
-4 -11 0
c More subsumed clauses
-1 -4 5 6 0
-8 -11 12 13 0
-15 -18 19 20 0
-2 -5 6 7 0
-9 -12 13 14 0
-3 -6 7 1 0
-10 -13 14 8 0
1 8 15 2 0
2 9 16 3 0
3 10 17 4 0
c Additional redundant constraints
-4 -7 1 0
-11 -14 8 0
-18 -21 15 0
-5 -6 2 0
-12 -13 9 0
-19 -20 16 0
-6 -7 3 0
-13 -14 10 0
-20 -21 17 0
c More tautologies
6 -6 0
7 -7 0
9 -9 0
10 -10 0
c Final duplicates and subsumed clauses
-1 -15 0
-2 -16 0
-3 -17 0
1 8 0
2 9 0
3 10 0
4 11 18 0
5 12 19 0
6 13 20 0
7 14 21 0
-5 -12 1 0
-6 -13 2 0
-7 -14 3 0